<number of tasks>
250

<cycle time>
1000

<order strength>
0.897


<task times>
1 262
2 123
3 73
4 58
5 43
6 162
7 37
8 256
9 76
10 44
11 61
12 214
13 176
14 291
15 36
16 277
17 338
18 159
19 126
20 192
21 432
22 105
23 237
24 199
25 264
26 239
27 141
28 169
29 147
30 152
31 189
32 117
33 145
34 182
35 152
36 156
37 119
38 232
39 155
40 99
41 26
42 113
43 111
44 149
45 155
46 144
47 202
48 230
49 253
50 86
51 54
52 60
53 28
54 183
55 173
56 193
57 89
58 103
59 68
60 86
61 170
62 144
63 36
64 151
65 47
66 263
67 324
68 127
69 97
70 154
71 113
72 67
73 173
74 135
75 217
76 228
77 134
78 151
79 40
80 85
81 41
82 201
83 113
84 297
85 56
86 170
87 164
88 45
89 132
90 161
91 172
92 40
93 193
94 51
95 173
96 204
97 132
98 203
99 218
100 125
101 152
102 42
103 226
104 224
105 257
106 24
107 127
108 140
109 112
110 139
111 207
112 51
113 143
114 179
115 275
116 161
117 90
118 191
119 54
120 269
121 185
122 237
123 42
124 200
125 205
126 235
127 218
128 184
129 266
130 121
131 168
132 43
133 197
134 249
135 179
136 276
137 99
138 116
139 199
140 233
141 22
142 49
143 103
144 166
145 213
146 183
147 278
148 82
149 20
150 25
151 41
152 229
153 21
154 79
155 25
156 212
157 56
158 298
159 252
160 126
161 84
162 340
163 98
164 175
165 41
166 203
167 121
168 184
169 79
170 45
171 170
172 254
173 62
174 146
175 201
176 33
177 135
178 172
179 115
180 93
181 175
182 169
183 124
184 68
185 60
186 151
187 92
188 81
189 72
190 168
191 64
192 96
193 169
194 99
195 79
196 181
197 124
198 182
199 169
200 142
201 27
202 68
203 360
204 100
205 88
206 91
207 253
208 225
209 69
210 186
211 130
212 332
213 201
214 230
215 259
216 275
217 190
218 94
219 90
220 193
221 35
222 113
223 130
224 181
225 150
226 53
227 38
228 146
229 112
230 161
231 62
232 163
233 225
234 161
235 131
236 145
237 42
238 191
239 51
240 171
241 136
242 219
243 35
244 215
245 152
246 33
247 82
248 214
249 156
250 181

<precedence relations>
1,7
1,11
2,6
2,7
2,8
2,9
2,10
2,11
3,6
3,7
3,8
3,9
3,10
3,11
4,6
4,7
4,8
4,9
4,10
4,11
5,6
5,7
5,8
5,9
5,10
5,11
6,12
6,13
6,14
6,15
7,12
7,13
7,14
7,15
8,12
8,13
8,14
8,15
9,12
9,13
9,14
9,15
10,12
10,13
10,14
10,15
11,12
11,13
12,16
12,17
12,18
12,19
13,16
13,17
13,18
13,19
14,16
14,17
14,18
14,19
15,16
15,17
15,18
15,19
16,20
16,21
16,22
16,23
16,24
16,25
17,20
17,21
17,22
17,23
17,24
17,25
18,20
18,21
18,22
18,23
18,24
18,25
19,20
19,21
19,22
19,23
19,24
19,25
20,26
20,27
20,28
20,29
20,30
21,26
21,27
21,28
21,29
21,30
22,26
22,27
22,28
22,29
22,30
23,26
23,27
23,28
24,67
25,26
25,27
25,28
25,29
25,30
26,31
26,32
26,33
26,34
27,31
27,32
27,33
27,34
28,31
28,32
28,33
28,34
29,31
29,32
29,33
29,34
30,32
30,33
30,34
31,35
31,36
31,37
31,38
31,39
31,40
32,35
32,36
32,37
32,38
32,39
32,40
33,35
33,36
33,37
33,38
33,39
34,36
34,40
35,41
35,42
35,43
35,44
35,45
35,46
36,41
36,42
36,45
36,46
37,41
37,42
37,43
37,44
37,45
37,46
38,41
38,42
38,43
38,44
38,45
38,46
39,41
39,42
39,43
39,45
40,43
40,44
40,45
40,46
41,47
41,48
41,49
41,50
42,47
42,48
42,49
42,50
43,47
43,48
43,49
43,50
44,47
44,48
44,49
44,50
45,47
45,48
45,49
45,50
46,47
46,48
46,49
46,50
47,51
47,52
47,53
47,54
48,51
48,52
48,53
48,54
49,51
49,52
49,53
49,54
50,51
50,52
50,53
51,55
51,56
51,59
52,55
52,57
52,59
53,55
53,56
53,57
53,58
53,59
54,55
54,56
54,57
54,58
54,59
55,60
55,61
56,60
56,61
57,60
57,61
58,60
58,61
59,60
59,61
60,62
60,63
60,64
61,62
61,63
61,64
62,65
62,66
62,67
62,68
62,69
63,65
63,66
63,67
63,68
64,66
64,68
64,69
65,81
65,89
66,70
66,71
67,70
67,71
67,72
67,73
67,74
68,70
68,71
68,72
68,73
68,74
69,81
70,83
70,93
70,112
71,75
71,77
72,75
72,76
72,79
73,75
73,76
73,77
73,78
73,79
74,75
74,76
74,77
74,78
74,79
75,80
75,81
75,82
75,83
76,80
76,81
76,82
76,83
77,80
77,87
78,80
78,81
78,82
78,83
79,83
80,84
80,85
81,84
81,85
81,87
81,88
81,96
82,84
82,85
82,86
82,89
83,97
83,117
84,141
84,152
85,110
85,118
86,90
86,91
87,217
88,91
88,92
89,90
89,91
90,96
90,97
90,101
91,93
91,110
91,112
92,93
92,94
92,95
92,97
93,98
94,98
94,101
94,102
95,98
95,99
95,100
95,101
95,102
96,98
96,99
96,100
96,102
97,115
97,118
98,103
98,105
98,107
98,115
99,103
99,104
99,106
100,103
101,103
101,104
101,109
101,117
102,103
102,104
102,105
102,106
102,108
102,113
103,127
103,128
104,112
105,116
106,134
107,111
107,113
108,135
109,110
109,118
110,114
110,115
111,114
111,117
112,114
112,115
112,116
113,116
113,118
113,121
114,119
114,120
114,128
115,119
115,120
115,121
116,119
116,128
117,119
118,161
118,171
119,122
119,123
120,198
121,122
121,124
122,125
122,147
123,125
123,126
123,127
124,126
124,127
124,128
125,129
125,130
126,129
126,130
126,131
126,132
127,129
127,130
127,131
127,132
128,129
129,135
130,170
130,179
130,191
131,133
131,134
131,135
131,136
132,144
132,168
133,137
133,138
133,140
134,139
135,137
135,138
135,139
135,141
136,137
136,142
137,143
138,143
138,144
138,145
139,144
140,143
140,144
140,145
140,150
141,146
142,147
143,148
143,149
143,152
144,148
144,169
145,151
146,148
146,149
147,149
147,150
147,153
148,153
148,157
149,154
149,155
149,156
150,152
150,226
151,170
151,178
152,217
153,156
154,157
154,158
155,242
156,159
156,162
157,161
158,159
158,160
159,163
160,164
160,168
160,169
160,178
161,163
161,164
161,166
161,167
161,172
162,163
162,164
162,165
163,173
164,170
164,174
165,171
165,172
166,205
167,170
167,173
167,175
167,184
168,176
168,184
169,232
170,177
170,197
171,194
171,195
172,176
172,179
173,211
174,184
175,176
175,177
175,178
176,180
176,181
176,182
176,183
177,180
177,188
177,193
178,181
178,196
178,197
179,180
179,183
179,184
180,192
181,185
181,186
182,187
183,188
184,185
185,189
185,192
186,189
186,193
186,212
186,215
187,191
188,189
188,190
190,196
191,194
191,197
192,194
192,195
193,194
193,214
194,201
194,210
194,216
195,199
195,205
196,198
196,200
196,202
198,203
198,204
198,205
199,206
199,207
200,203
200,204
200,205
201,203
201,223
202,226
202,233
202,249
203,233
204,206
205,207
206,208
206,209
206,210
206,211
207,208
207,209
207,210
207,212
208,214
209,221
209,230
210,213
211,215
213,217
214,216
215,218
215,219
215,224
215,227
216,220
216,229
217,221
217,222
217,223
218,229
220,226
220,232
220,248
221,225
221,244
222,227
223,224
223,228
223,229
224,230
224,233
225,231
225,232
226,242
226,250
227,231
228,250
229,232
230,234
230,235
230,246
230,247
231,236
231,237
234,239
235,238
235,241
236,241
237,240
239,243
239,245
240,242
242,245
242,246
242,247
243,244
243,248
243,249
243,250

<end>
